r = [
0,13,12,12,16,6,13,3,12,15,9,0
];
p = [
0,23,6,28,14,4,19,27,14,15,7,0
];
e = [
0,5,12,13,1,4,15,19,15,20,7,0
];
d = [
0,141,151,159,169,136,163,123,184,179,159,191
];
d_bar = [
0,153,154,173,176,138,173,137,191,187,163,191
];
w = [
0,0.416666667,4,0.928571429,0.142857143,2,1.5,1.357142857,2.142857143,2.5,1.75,0
];
